76
125
87	1
86	3
85	5
84	4
83	2
82	7
81	3
80	7
79	2
78	9
77	6
76	2
75	4
74	4
73	2
72	4
71	4
70	5
69	5
68	3
67	2
66	6
65	2
64	4
63	6
62	2
61	3
60	5
59	3
58	5
57	4
56	1
55	5
54	4
53	1
52	6
51	1
50	7
49	3
48	4
47	6
46	6
45	3
44	3
43	5
42	5
41	1
40	5
39	3
38	2
37	3
36	1
35	1
34	2
33	3
32	6
31	6
30	2
29	3
28	3
27	5
26	6
25	8
24	2
23	4
22	3
21	6
20	3
19	4
18	3
17	5
16	2
15	8
14	4
13	11
12	1
